



11 11
10 14 7 17 5 1 1 2 8 14 2 19 9 13 4 5 6 10 3 10 0 15
7 17 5 14 9 11 6 9 8 2 2 12 1 4 10 16 0 18 3 19 4 13
3 4 8 12 9 2 5 6 10 2 6 6 7 14 0 2 4 15 1 17 2 6
3 18 4 9 7 1 6 14 8 12 0 10 5 10 10 5 1 10 2 7 9 5
6 10 9 9 3 5 10 1 2 1 7 8 4 15 0 17 5 14 8 11 1 15
4 1 8 1 3 13 0 7 2 14 10 8 6 7 1 10 9 6 5 3 7 14
9 15 5 15 6 5 10 8 8 6 4 19 2 14 1 15 3 3 7 5 0 10
5 11 7 12 3 13 8 14 10 1 9 16 1 14 4 18 6 14 0 2 2 13
0 19 5 14 8 2 7 9 10 5 9 5 3 7 4 19 1 16 6 17 2 9
7 15 8 2 9 3 1 17 2 15 0 8 6 16 5 1 3 13 10 15 4 18
4 10 2 12 8 4 10 1 5 19 7 17 6 14 1 3 0 6 9 14 3 15
